p cnf 16 26
-1 -2 -3 -6 0
-2 -3 -6 0
1 9 0
-1 -9 0
2 10 0
-2 -10 0
3 11 0
-3 -11 0
4 12 0
-4 -12 0
5 13 0
-5 -13 0
6 14 0
-6 -14 0
7 15 0
-7 -15 0
8 16 0
-8 -16 0
-9 0
-10 0
-11 0
-12 0
-13 0
-14 0
-15 0
-16 0
